&bands
   outdir = './tmp/',
   prefix='GaAs',
   filband='GaAs.band',
   lsym=.true.
/
