&control
    calculation = 'relax'
    prefix      = 'LiFePO4'
    outdir      = './tmp/'
    pseudo_dir  = './'       ! adjust to wherever your UPFs are
    wf_collect  = .true.
    verbosity   = 'high'
/
&system
    ibrav        = 0
    nat          = 28
    ntyp         = 4

    ecutwfc      = 60.0
    ecutrho      = 480.0

    occupations  = 'smearing'
    smearing     = 'mv'
    degauss      = 0.01

    nspin        = 2
    starting_magnetization(2) = 0.7   ! Fe (2nd species: Li, Fe, P, O)
/
&electrons
    conv_thr     = 1.0d-8
    mixing_beta  = 0.7
/
&ions
    ion_dynamics   = 'bfgs'
/

CELL_PARAMETERS angstrom
  20.47239210   0.00000000   0.00000000
   0.00000000  11.94151020   0.00000000
   0.00000000   0.00000000   4.65491719

ATOMIC_SPECIES
  Li  6.94    Li.upf
  Fe  55.845  Fe.upf
  P   30.974  P.upf
  O   15.999  O.upf

ATOMIC_POSITIONS angstrom
  Li         0.00000        0.00000        0.00000
  Li         2.32746        2.98538        5.11810
  Li         2.32746        0.00000        5.11810
  Li         0.00000        2.98538        0.00000
  Fe         2.46648        1.49269        7.99602
  Fe         0.13902        4.47807        7.35828
  Fe         4.51589        1.49269        2.87792
  Fe         2.18844        4.47807        2.24018
  P          1.94865        1.49269        0.96083
  P          4.27611        4.47807        4.15726
  P          0.37881        1.49269        6.07893
  P          2.70626        4.47807        9.27536
  O          3.46692        1.49269        0.96456
  O          3.32238        3.25739        8.53857
  O          3.32238        5.69874        8.53857
  O          1.18800        4.47807        9.27163
  O          3.30436        4.47807        0.45355
  O          1.13946        4.47807        4.15353
  O          1.33254        0.27202        1.69763
  O          0.99492        2.71336        6.81572
  O          3.66000        3.25739        3.42047
  O          3.66000        5.69874        3.42047
  O          1.35056        1.49269        9.78264
  O          0.97690        1.49269        4.66455
  O          3.67802        4.47807        5.57165
  O          3.51546        1.49269        6.08266
  O          0.99492        0.27202        6.81572
  O          1.33254        2.71336        1.69763

K_POINTS {automatic}
  2 4 8  0 0 0
