# Define Variables
variable temp equal 1.5
variable rdf_bins equal 50
variable sim_run equal 1
variable cut_off equal 2.5

# Define the Units
units lj
atom_style atomic

# Create a Simulation Box
read_data Ar.data

# Assign the Group to Argon and Assign it's mass
group Ar type 1
mass 1 1.0

# Define the Potential of the Simulation
pair_style lj/cut ${cut_off}
pair_coeff 1 1 1.0 1.0

# Set the initial velocity
velocity all create ${temp} 54343

# Define the Thermodynamics Output
thermo 100
thermo_style custom step temp press vol etotal
timestep 0.005

# Compute the RDF
compute RDF all rdf ${rdf_bins}

# Run the Simulation
fix integrate1 all npt temp ${temp} ${temp} 1 iso 5 5 1
fix 1 all ave/time 100 10 1000 c_RDF[*] file RDF_Pre_Sim${sim_run}.data mode vector


# Run the Simulation
run 20000
unfix integrate1

# Output the RDF Data to the Dump Folder
fix integrate2 all nve
fix 1 all ave/time 100 10 1000 c_RDF[*] file RDF_Sim${sim_run}.data mode vector

# Dump the files for the positions of the Atoms every 100 Frames
dump            myDump1 all custom 100 Dumpfiles/_*.dump id type element x y z vx vy vz fx fy fz
dump_modify 	myDump1 element Ar

# Run the Simulation
run 80000
unfix integrate2